p edge 711 696
e 1 2
e 1 3
e 1 4
e 1 5
e 1 6
e 1 7
e 1 8
e 1 9
e 1 10
e 1 11
e 1 12
e 1 13
e 1 14
e 1 15
e 1 16
e 1 17
e 1 18
e 1 19
e 1 20
e 1 21
e 1 22
e 1 23
e 1 24
e 1 25
e 1 26
e 1 27
e 1 28
e 1 29
e 1 30
e 1 31
e 1 32
e 1 33
e 1 34
e 1 35
e 1 36
e 1 37
e 1 38
e 1 39
e 1 40
e 1 41
e 1 42
e 1 43
e 1 44
e 45 46
e 45 47
e 45 48
e 45 49
e 45 50
e 45 51
e 45 52
e 45 53
e 45 54
e 45 55
e 45 56
e 45 57
e 45 58
e 45 59
e 45 60
e 45 61
e 45 62
e 45 63
e 45 64
e 45 65
e 45 66
e 45 67
e 45 68
e 45 69
e 45 70
e 45 71
e 45 72
e 45 73
e 45 74
e 45 75
e 45 76
e 45 77
e 45 78
e 45 79
e 45 80
e 45 81
e 45 82
e 45 83
e 45 84
e 45 85
e 45 86
e 45 87
e 45 88
e 45 89
e 90 91
e 90 92
e 90 93
e 90 94
e 90 95
e 90 96
e 90 97
e 90 98
e 90 99
e 90 100
e 90 101
e 90 102
e 90 103
e 90 104
e 90 105
e 90 106
e 90 107
e 90 108
e 90 109
e 90 110
e 90 111
e 90 112
e 90 113
e 90 114
e 90 115
e 90 116
e 90 117
e 90 118
e 90 119
e 90 120
e 90 121
e 90 122
e 90 123
e 90 124
e 90 125
e 126 127
e 126 128
e 126 129
e 126 130
e 126 131
e 126 132
e 126 133
e 126 134
e 126 135
e 126 136
e 126 137
e 126 138
e 126 139
e 126 140
e 126 141
e 126 142
e 126 143
e 126 144
e 126 145
e 126 146
e 126 147
e 126 148
e 149 150
e 149 151
e 149 152
e 149 153
e 149 154
e 149 155
e 149 156
e 149 157
e 149 158
e 149 159
e 149 160
e 149 161
e 149 162
e 149 163
e 149 164
e 149 165
e 149 166
e 149 167
e 149 168
e 149 169
e 149 170
e 149 171
e 149 172
e 149 173
e 149 174
e 149 175
e 149 176
e 149 177
e 149 178
e 149 179
e 149 180
e 149 181
e 149 182
e 149 183
e 149 184
e 149 185
e 149 186
e 149 187
e 149 188
e 149 189
e 149 190
e 149 191
e 149 192
e 149 193
e 149 194
e 149 195
e 149 196
e 149 197
e 149 198
e 149 199
e 149 200
e 201 202
e 201 203
e 201 204
e 201 205
e 201 206
e 201 207
e 201 208
e 201 209
e 201 210
e 201 211
e 212 213
e 212 214
e 212 215
e 212 216
e 212 217
e 212 218
e 212 219
e 212 220
e 212 221
e 212 222
e 212 223
e 212 224
e 212 225
e 212 226
e 212 227
e 212 228
e 212 229
e 212 230
e 212 231
e 212 232
e 212 233
e 212 234
e 212 235
e 212 236
e 212 237
e 212 238
e 212 239
e 212 240
e 212 241
e 212 242
e 212 243
e 212 244
e 212 245
e 212 246
e 212 247
e 212 248
e 212 249
e 212 250
e 212 251
e 212 252
e 212 253
e 212 254
e 212 255
e 212 256
e 212 257
e 212 258
e 212 259
e 212 260
e 212 261
e 212 262
e 212 263
e 212 264
e 212 265
e 212 266
e 212 267
e 212 268
e 212 269
e 212 270
e 212 271
e 212 272
e 212 273
e 212 274
e 212 275
e 212 276
e 212 277
e 212 278
e 212 279
e 212 280
e 212 281
e 212 282
e 212 283
e 212 284
e 285 286
e 285 287
e 285 288
e 285 289
e 285 290
e 285 291
e 285 292
e 285 293
e 285 294
e 285 295
e 285 296
e 285 297
e 285 298
e 285 299
e 285 300
e 285 301
e 285 302
e 285 303
e 285 304
e 285 305
e 285 306
e 285 307
e 285 308
e 285 309
e 285 310
e 285 311
e 285 312
e 285 313
e 285 314
e 285 315
e 285 316
e 285 317
e 285 318
e 285 319
e 285 320
e 285 321
e 285 322
e 285 323
e 285 324
e 285 325
e 285 326
e 327 328
e 327 329
e 327 330
e 327 331
e 327 332
e 327 333
e 327 334
e 327 335
e 327 336
e 327 337
e 327 338
e 327 339
e 327 340
e 327 341
e 327 342
e 327 343
e 327 344
e 327 345
e 327 346
e 327 347
e 327 348
e 327 349
e 327 350
e 327 351
e 327 352
e 327 353
e 327 354
e 327 355
e 327 356
e 327 357
e 327 358
e 327 359
e 327 360
e 327 361
e 327 362
e 327 363
e 327 364
e 327 365
e 327 366
e 327 367
e 327 368
e 327 369
e 327 370
e 327 371
e 327 372
e 327 373
e 327 374
e 327 375
e 327 376
e 327 377
e 327 378
e 327 379
e 327 380
e 381 382
e 381 383
e 381 384
e 381 385
e 381 386
e 381 387
e 381 388
e 381 389
e 381 390
e 381 391
e 381 392
e 381 393
e 381 394
e 381 395
e 381 396
e 381 397
e 381 398
e 381 399
e 381 400
e 381 401
e 381 402
e 381 403
e 381 404
e 381 405
e 381 406
e 381 407
e 381 408
e 381 409
e 381 410
e 381 411
e 381 412
e 381 413
e 381 414
e 381 415
e 381 416
e 381 417
e 381 418
e 381 419
e 381 420
e 381 421
e 381 422
e 381 423
e 381 424
e 381 425
e 381 426
e 381 427
e 381 428
e 381 429
e 381 430
e 381 431
e 381 432
e 381 433
e 381 434
e 381 435
e 381 436
e 381 437
e 381 438
e 381 439
e 381 440
e 381 441
e 381 442
e 381 443
e 381 444
e 381 445
e 381 446
e 381 447
e 381 448
e 381 449
e 381 450
e 381 451
e 381 452
e 381 453
e 381 454
e 381 455
e 381 456
e 381 457
e 381 458
e 381 459
e 460 461
e 460 462
e 460 463
e 460 464
e 460 465
e 460 466
e 460 467
e 460 468
e 460 469
e 460 470
e 460 471
e 460 472
e 460 473
e 460 474
e 460 475
e 460 476
e 460 477
e 460 478
e 460 479
e 460 480
e 460 481
e 460 482
e 460 483
e 460 484
e 460 485
e 460 486
e 460 487
e 460 488
e 460 489
e 460 490
e 491 492
e 491 493
e 491 494
e 491 495
e 491 496
e 491 497
e 491 498
e 491 499
e 491 500
e 491 501
e 491 502
e 491 503
e 504 505
e 504 506
e 504 507
e 504 508
e 504 509
e 504 510
e 504 511
e 504 512
e 504 513
e 504 514
e 504 515
e 504 516
e 504 517
e 504 518
e 504 519
e 504 520
e 504 521
e 504 522
e 504 523
e 504 524
e 504 525
e 504 526
e 504 527
e 504 528
e 504 529
e 504 530
e 504 531
e 504 532
e 504 533
e 504 534
e 504 535
e 504 536
e 504 537
e 504 538
e 504 539
e 504 540
e 504 541
e 504 542
e 504 543
e 504 544
e 504 545
e 504 546
e 504 547
e 504 548
e 504 549
e 550 551
e 550 552
e 550 553
e 550 554
e 550 555
e 550 556
e 550 557
e 550 558
e 550 559
e 550 560
e 550 561
e 550 562
e 550 563
e 550 564
e 550 565
e 550 566
e 550 567
e 550 568
e 550 569
e 550 570
e 550 571
e 550 572
e 550 573
e 550 574
e 550 575
e 550 576
e 550 577
e 550 578
e 550 579
e 550 580
e 550 581
e 550 582
e 550 583
e 550 584
e 550 585
e 550 586
e 550 587
e 550 588
e 550 589
e 550 590
e 550 591
e 550 592
e 550 593
e 550 594
e 550 595
e 550 596
e 550 597
e 550 598
e 550 599
e 550 600
e 550 601
e 550 602
e 550 603
e 550 604
e 550 605
e 550 606
e 550 607
e 550 608
e 550 609
e 550 610
e 550 611
e 550 612
e 550 613
e 550 614
e 550 615
e 550 616
e 550 617
e 550 618
e 550 619
e 550 620
e 621 622
e 621 623
e 621 624
e 621 625
e 621 626
e 621 627
e 621 628
e 621 629
e 621 630
e 621 631
e 621 632
e 621 633
e 621 634
e 621 635
e 621 636
e 621 637
e 621 638
e 621 639
e 621 640
e 621 641
e 621 642
e 621 643
e 621 644
e 621 645
e 621 646
e 621 647
e 621 648
e 621 649
e 621 650
e 621 651
e 621 652
e 621 653
e 621 654
e 621 655
e 621 656
e 621 657
e 621 658
e 621 659
e 621 660
e 621 661
e 621 662
e 621 663
e 621 664
e 621 665
e 621 666
e 621 667
e 621 668
e 621 669
e 621 670
e 621 671
e 621 672
e 621 673
e 621 674
e 621 675
e 621 676
e 621 677
e 621 678
e 621 679
e 621 680
e 621 681
e 621 682
e 621 683
e 621 684
e 621 685
e 621 686
e 621 687
e 621 688
e 621 689
e 621 690
e 621 691
e 621 692
e 621 693
e 621 694
e 621 695
e 621 696
e 621 697
e 621 698
e 621 699
e 621 700
e 621 701
e 621 702
e 621 703
e 621 704
e 621 705
e 621 706
e 621 707
e 621 708
e 621 709
e 621 710
e 621 711
